; benchmark generated from python API
(set-info :status unknown)
(declare-fun S_3 () Real)
(declare-fun S_5 () Real)
(declare-fun C () Real)
(declare-fun S_0 () Real)
(declare-fun B () Real)
(declare-fun S_1 () Real)
(declare-fun A_0 () Real)
(declare-fun L_0 () Real)
(declare-fun S_2 () Real)
(declare-fun S_4 () Real)
(declare-fun A_1 () Real)
(declare-fun L0 () Real)
(declare-fun A_2 () Real)
(declare-fun A_3 () Real)
(declare-fun A_4 () Real)
(declare-fun A_5 () Real)
(assert
 (let (($x575 (>= (+ (* (- 2.0) C) (* (- 1.0) B) S_5 (* (- 1.0) S_0)) 0.0)))
 (let (($x42 (>= L0 0.0)))
 (let (($x925 (>= C 5.0)))
 (let (($x9756 (<= 0.0 (+ (* (- 1.0) C) (* (- 1.0) B) S_5 (* (- 1.0) S_1)))))
 (let (($x9748 (<= 0.0 (+ (* 2.0 C) (* (- 1.0) B) S_5 (* (- 1.0) S_4)))))
 (let (($x9658 (<= 0.0 (+ (* (- 1.0) C) (* (- 1.0) B) L_0 S_5 (* (- 1.0) A_0)))))
 (let (($x41 (>= L_0 L0)))
 (let (($x131 (>= S_1 S_0)))
 (let (($x134 (>= S_2 S_1)))
 (let (($x137 (>= S_3 S_2)))
 (let (($x140 (>= S_4 S_3)))
 (let (($x143 (>= S_5 S_4)))
 (let (($x146 (>= A_2 A_1)))
 (let (($x147 (>= A_3 A_2)))
 (let (($x148 (>= A_4 A_3)))
 (let (($x149 (>= A_5 A_4)))
 (and (<= (+ A_0 (* (- 1.0) L_0)) S_5) $x149 $x148 $x147 $x146 $x143 $x140 $x137 $x134 $x131 $x41 (<= (+ (* (- 2.0) C) S_1 (* (- 1.0) S_0)) 0.0) (<= (+ (* 2.0 C) S_2 (* (- 1.0) S_5)) 0.0) (<= (+ (* (- 2.0) C) L_0 S_2 (* (- 1.0) A_0)) 0.0) (<= (+ (* (- 2.0) C) S_2 (* (- 1.0) S_1)) 0.0) (<= (+ (* (- 3.0) C) S_2 (* (- 1.0) S_0)) 0.0) (<= (+ (* (- 5.0) C) S_5 (* (- 1.0) S_1)) 0.0) (<= (+ (* 2.0 C) S_1 (* (- 1.0) S_4)) 0.0) (<= (+ (* (- 3.0) C) S_3 (* (- 1.0) S_1)) 0.0) (<= (+ (* (- 4.0) C) (* (- 1.0) S_1) S_4) 0.0) (<= (+ (* (- 3.0) C) (* (- 1.0) S_2) S_4) 0.0) (<= (+ (* (- 4.0) C) L_0 (* (- 1.0) A_0) S_4) 0.0) (<= (+ (* (- 4.0) C) (* (- 1.0) S_2) S_5) 0.0) (not $x9658) (not $x9748) (not $x9756) (<= (+ (* (- 5.0) C) (* (- 1.0) S_0) S_4) 0.0) (<= (+ (* (- 5.0) C) L_0 S_5 (* (- 1.0) A_0)) 0.0) (<= (+ (* (- 6.0) C) S_5 (* (- 1.0) S_0)) 0.0) (not (<= 0.0 (+ C (* (- 1.0) B) S_5 (* (- 1.0) S_3)))) (<= (+ (* 2.0 C) (* (- 1.0) S_3) S_0) 0.0) (<= (+ (* 3.0 C) S_0 (* (- 1.0) S_4)) 0.0) (<= (+ (* (- 2.0) C) (* (- 1.0) S_2) S_3) 0.0) (<= (+ (* (- 3.0) C) L_0 (* (- 1.0) A_0) S_3) 0.0) (<= (+ (* (- 4.0) C) S_3 (* (- 1.0) S_0)) 0.0) (<= (+ C (* (- 1.0) S_5) S_3) 0.0) (<= (+ (* 4.0 C) (* (- 1.0) S_5) S_0) 0.0) (not (<= 0.0 (+ (* 3.0 C) (* (- 1.0) B)))) (<= (+ (* 3.0 C) (* (- 1.0) S_5) S_1) 0.0) $x925 $x42 (not (>= (+ L_0 (* (- 1.0) A_1) S_5) 0.0)) (<= (+ C S_2 (* (- 1.0) S_4)) 0.0) (<= (+ C (* (- 1.0) S_3) S_1) 0.0) (<= (+ L_0 (* (- 1.0) A_0) S_0) 0.0) (<= (+ (* (- 2.0) C) (* (- 1.0) S_3) S_4) 0.0) (<= (+ (* (- 2.0) C) S_5 (* (- 1.0) S_4)) 0.0) (<= (+ C (* (- 1.0) S_2) S_0) 0.0) (not (>= (+ (* (- 1.0) B) (* (- 1.0) S_2) S_5) 0.0)) (<= (+ (* (- 1.0) C) L_0 (* (- 1.0) A_0) S_1) 0.0) (not $x575) (<= (+ (* (- 3.0) C) S_5 (* (- 1.0) S_3)) 0.0)))))))))))))))))))
(check-sat)
